CUST NO.,SPOT ID,PARKING TIME_ARRIVE,PARKING TIME_OPEN
0,0,0,0
156,156,60,0
157,157,60,0
158,158,60,0
159,159,0,60
160,160,0,60
161,161,0,60
162,162,0,0
163,163,0,0
168,168,0,0
169,169,0,0
170,170,0,0
175,175,0,0
164,164,0,0
165,165,0,0
31,31,0,0
176,176,0,0
177,177,0,0
178,178,0,0
312,312,0,0
1000000,0,0,0
1000001,0,0,0
1000002,0,0,0
1000003,0,0,0